N = 7;
H = 5;
T = 2;

avail = array3d(1..N, 1..H, 1..T, [2, 3, 5, 8, 9, 1, 4, 8, 4, 4, 1, 6, 9, 3, 0, 3, 6, 2, 0, 1, 9, 5, 9, 8, 2, 2, 3, 4, 7, 2, 6, 6, 0, 3, 8, 10, 9, 4, 7, 1, 2, 1, 0, 1, 3, 4, 9, 2, 7, 4, 7, 5, 9, 0, 1, 3, 9, 9, 8, 10, 6, 8, 4, 3, 9, 0, 7, 5, 5, 10]);

r = array2d(1..H, 1..T, [1, 3, 2, 2, 2, 2, 0, 0, 2, 2]);
